InboundTrucks  = 100;
OutboundTrucks = 50;
InboundDoors   = 20;
OutboundDoors  = 10;
ReleaseTime    = [18,294,3,97,41,57,95,168,46,37,235,171,284,74,26,30,92,36,57,54,50,99,98,57,93,51,255,190,255,16,89,203,100,78,72,99,51,50,48,88,79,188,273,241,233,93,4,34,183,251,26,71,70,94,177,267,47,59,95,1,86,74,58,68,56,66,39,95,24,57,72,23,4,77,99,86,17,262,38,299,47,64,29,8,92,56,25,21,8,52,37,57,93,64,67,17,46,57,41,167];
UnloadTime     = [2,3,7,4,8,7,11,6,3,3,12,9,2,5,12,1,5,8,12,10,6,11,12,6,4,12,12,3,6,1,9,2,11,1,12,6,11,10,12,4,8,10,4,4,6,3,4,1,8,11,11,4,5,8,9,3,3,9,11,11,11,9,11,12,12,3,3,10,7,11,6,6,6,10,1,3,9,4,11,6,9,4,12,12,2,6,2,6,6,6,7,5,3,4,1,8,7,12,4,4];
LoadTime       = [3,7,4,4,8,7,12,4,2,7,2,5,2,6,7,2,4,2,9,11,7,3,1,5,9,9,9,6,5,11,9,6,11,11,3,10,7,9,11,2,10,3,8,9,6,11,3,6,11,12];
TransferTime   = [| 2,0,0,2,0,0,2,0,0,0,0,0,2,0,0,2,1,0,0,0,1,0,0,0,0,0,0,1,2,0,1,1,0,0,1,0,0,2,1,0,0,2,2,0,1,0,0,2,1,0 | 0,0,0,2,0,0,2,0,2,0,0,0,2,1,1,0,1,0,2,0,2,1,0,0,1,0,0,1,0,0,0,0,0,0,1,0,0,0,0,0,0,0,0,2,2,0,0,2,1,0 | 0,1,0,0,0,2,0,0,0,2,0,1,0,2,2,0,1,0,0,2,1,0,2,0,2,0,0,1,0,0,0,1,1,0,1,0,0,0,0,1,0,1,1,0,0,1,0,1,1,0 | 2,0,0,1,1,2,0,0,2,0,0,2,0,0,0,1,2,1,0,0,0,0,2,0,0,0,1,2,2,0,0,0,2,0,0,1,0,2,0,0,2,0,1,0,2,2,0,0,0,0 | 0,0,1,0,0,0,0,0,0,0,1,0,1,1,0,0,0,2,2,2,1,0,0,2,0,2,0,0,1,1,1,0,0,0,0,0,0,0,0,1,0,0,0,2,0,1,1,0,1,1 | 1,2,0,1,1,0,0,0,2,0,0,0,2,0,0,1,0,1,0,0,0,0,0,0,0,1,0,0,0,0,2,0,1,0,0,0,0,0,0,2,1,0,2,0,1,0,0,2,0,1 | 1,0,1,2,0,1,0,0,1,2,0,0,0,0,0,0,1,1,2,2,2,0,0,0,0,0,0,0,1,1,0,0,1,1,2,0,2,2,1,2,0,0,0,2,0,1,0,0,0,2 | 0,1,2,0,1,0,1,0,0,0,1,0,2,0,0,0,2,2,1,0,1,0,0,1,0,2,1,1,0,0,1,0,2,1,0,2,1,0,0,2,0,0,2,0,0,0,0,0,1,0 | 0,2,2,2,2,0,0,0,0,2,0,0,0,0,0,0,2,0,1,1,0,0,0,2,2,2,2,0,0,1,0,0,1,1,0,1,0,0,0,1,1,0,0,0,0,0,2,2,2,0 | 0,0,0,2,2,1,2,0,0,0,0,0,0,0,0,1,1,2,0,0,0,0,0,0,0,1,0,0,2,2,2,0,0,0,0,0,0,0,2,1,0,0,1,1,2,0,1,0,2,0 | 0,0,0,0,0,0,0,2,0,1,0,0,0,1,1,2,2,1,1,0,0,2,2,0,0,0,0,0,2,2,0,0,1,1,0,1,0,0,0,0,1,1,2,0,1,1,0,0,1,2 | 2,1,2,0,0,0,0,0,0,0,2,1,2,0,0,1,0,0,0,1,0,0,2,0,0,2,0,2,1,1,1,2,0,1,0,0,2,2,0,2,0,2,0,2,0,2,0,0,0,1 | 0,0,1,0,1,2,0,0,0,0,0,1,0,1,2,1,0,0,2,1,0,0,0,0,1,1,2,2,0,0,2,1,1,2,0,0,0,0,1,0,1,2,1,2,0,0,0,1,2,0 | 0,0,1,0,0,2,0,0,1,0,0,2,0,0,0,1,2,2,0,1,0,1,0,1,0,2,0,0,1,1,1,1,1,0,0,1,0,1,0,0,2,0,2,1,2,0,1,0,2,0 | 1,1,1,1,0,1,2,0,0,2,0,0,1,1,0,0,0,1,2,2,0,2,0,1,2,1,0,0,0,2,0,1,0,0,0,0,0,0,2,1,2,1,1,0,1,0,0,0,1,2 | 0,0,0,1,0,1,0,0,1,0,0,0,2,0,0,0,0,0,0,0,0,0,0,0,0,2,0,0,0,0,0,0,0,0,1,1,0,1,0,0,0,2,0,0,2,0,1,0,2,0 | 1,1,0,0,0,0,0,2,0,0,0,2,0,2,1,0,0,0,0,0,0,2,0,0,2,0,2,1,2,1,0,0,2,2,2,0,0,0,0,0,2,0,2,0,2,0,0,0,0,1 | 0,0,0,2,1,2,2,1,0,0,0,2,1,2,1,1,0,0,2,0,0,1,0,0,0,0,2,0,1,0,0,1,0,0,2,0,0,0,0,0,0,0,0,2,1,0,0,2,0,1 | 0,0,0,1,0,2,0,0,0,0,0,0,0,0,1,0,0,0,0,0,0,0,1,1,0,1,0,0,2,0,0,2,1,0,0,0,0,1,0,0,1,0,0,0,0,1,1,0,0,2 | 0,0,1,0,2,0,1,2,1,0,0,1,1,2,1,0,0,0,0,0,0,0,0,1,1,2,2,2,0,2,0,2,0,0,0,1,0,0,0,2,1,0,0,1,1,1,0,2,1,0 | 1,0,0,4,0,5,0,0,0,0,2,0,2,0,0,0,0,2,0,0,0,2,1,2,0,0,4,0,0,0,0,0,0,0,0,0,0,0,0,1,0,0,0,0,0,5,1,0,0,0 | 0,0,4,0,1,0,4,0,1,0,0,0,0,0,0,0,0,0,0,1,0,0,1,0,0,0,4,0,0,5,0,0,1,0,0,5,0,0,0,0,0,3,0,4,0,0,0,0,5,2 | 4,0,1,0,1,3,0,0,0,0,0,0,0,0,0,3,2,0,0,0,0,0,3,0,2,3,0,2,0,3,0,2,0,0,0,0,0,0,2,0,0,4,3,0,0,3,0,0,0,0 | 0,0,1,1,2,3,2,0,4,2,0,0,0,0,0,0,0,0,0,0,2,0,0,2,0,0,0,0,0,0,0,0,0,5,5,2,0,1,0,2,0,4,0,0,3,0,4,0,0,4 | 0,0,0,4,0,0,0,4,5,4,0,0,0,4,0,4,0,4,0,0,0,0,3,4,0,0,0,0,0,1,0,0,4,0,4,0,0,2,0,0,0,0,2,4,4,5,0,0,0,0 | 0,0,0,0,0,0,0,0,0,0,1,0,0,0,2,0,0,1,4,0,0,0,0,0,0,5,0,0,1,3,0,0,0,0,0,0,4,2,1,3,0,0,0,0,0,0,1,4,0,0 | 0,0,0,3,0,0,0,0,1,0,5,0,0,2,0,3,0,0,0,0,2,0,0,0,0,0,1,0,0,3,4,3,0,0,0,0,0,1,2,2,5,3,0,0,0,3,0,0,0,0 | 1,0,0,0,4,0,0,0,0,4,0,0,2,0,0,0,1,0,1,0,4,1,0,0,0,2,0,0,0,0,0,2,5,0,0,0,1,0,0,0,0,0,0,0,0,2,0,0,0,0 | 0,0,0,1,0,5,0,0,0,0,0,0,0,0,3,0,0,0,0,0,0,0,0,0,0,0,1,0,0,0,4,0,0,0,0,0,0,0,0,0,0,0,0,4,0,5,0,0,4,0 | 0,2,3,0,0,2,0,0,1,0,0,0,0,0,0,0,3,3,0,2,0,0,2,1,0,0,4,0,0,0,0,0,0,5,1,0,0,3,0,0,0,2,0,0,0,0,0,0,2,0 | 3,0,0,0,2,0,0,0,0,5,0,5,0,0,2,0,0,5,0,0,0,2,0,0,2,0,0,5,1,0,1,0,0,0,5,0,0,0,0,5,0,0,0,1,0,0,0,4,4,1 | 4,0,0,0,2,0,0,0,0,0,0,0,0,1,4,0,4,0,0,3,0,0,0,0,5,0,1,1,0,0,0,0,4,2,0,0,0,0,0,2,0,5,3,0,0,0,0,0,0,4 | 0,0,0,0,5,4,2,5,0,0,0,0,2,0,2,0,0,4,2,0,4,0,0,0,0,3,2,0,0,0,4,0,4,0,4,2,0,0,2,0,0,1,0,0,0,3,0,2,0,0 | 0,0,0,0,0,0,2,0,3,0,0,0,1,0,0,2,3,0,4,0,4,0,0,3,0,4,0,2,0,0,0,4,0,0,0,0,0,2,0,5,0,1,0,0,0,4,5,1,0,0 | 0,0,2,0,0,0,5,0,1,1,0,2,0,0,4,0,0,3,5,0,0,0,0,0,1,5,3,0,0,4,0,0,0,1,0,0,0,0,3,0,0,0,0,0,0,3,0,0,3,2 | 0,0,1,0,0,0,5,1,0,1,0,0,4,0,0,0,0,3,5,0,1,0,0,0,0,0,0,0,4,0,0,2,2,0,2,2,4,0,0,0,0,0,0,0,3,0,0,3,0,0 | 0,0,0,0,0,3,0,3,0,0,3,0,0,0,4,2,0,5,3,0,0,0,0,0,3,0,0,0,0,0,0,0,0,0,0,0,5,0,4,0,4,0,0,0,0,4,0,0,5,0 | 0,0,0,0,0,0,0,0,0,0,5,0,4,0,2,0,0,0,0,0,0,0,0,0,0,0,0,0,2,0,0,3,0,0,0,0,0,0,0,0,0,0,0,0,0,5,0,0,4,0 | 2,0,1,2,0,0,0,0,0,5,3,0,0,4,3,0,0,3,0,5,0,0,0,0,0,0,0,2,0,0,0,2,4,0,0,0,1,0,0,0,5,0,0,0,0,0,0,0,0,0 | 0,3,0,3,0,5,0,0,0,0,1,0,0,5,2,4,0,0,0,0,0,0,0,3,2,0,0,0,0,0,0,4,0,0,3,0,0,0,0,0,0,0,0,2,2,0,2,2,1,4 | 0,0,0,1,3,3,2,0,0,1,0,3,4,1,3,3,3,2,1,0,0,0,0,4,0,0,1,1,0,0,2,0,0,2,0,0,0,0,0,5,0,2,0,4,0,0,0,1,0,0 | 0,0,0,0,4,0,0,0,0,0,0,0,4,5,0,4,2,3,0,0,0,3,1,2,0,0,0,3,0,0,0,0,0,2,0,5,0,4,0,0,0,0,2,0,4,0,5,5,0,0 | 4,0,0,0,0,1,4,1,0,0,0,0,0,0,0,0,2,0,0,0,0,4,0,0,0,0,0,4,3,1,1,4,4,0,0,3,0,0,0,2,1,0,0,0,0,0,0,5,0,0 | 3,0,0,2,0,4,1,5,0,0,0,5,0,0,4,3,1,0,0,0,0,0,0,0,5,4,0,0,0,0,0,3,0,0,1,0,1,0,0,4,0,5,0,3,0,0,0,0,0,1 | 0,0,4,0,2,0,0,0,5,1,0,2,0,0,3,0,0,0,0,2,4,0,0,0,0,0,0,0,0,5,0,0,0,2,0,1,0,0,0,0,2,0,0,4,0,1,4,0,0,0 | 0,0,0,0,0,0,3,0,0,1,0,0,2,5,0,0,0,2,0,2,0,0,0,1,3,0,0,0,2,0,5,0,1,0,0,2,0,0,0,0,1,3,0,0,0,0,0,0,0,4 | 4,2,0,0,2,0,0,0,0,0,3,1,2,3,1,0,0,0,2,0,0,0,0,1,4,0,0,0,0,0,2,5,0,0,0,0,2,0,0,4,0,0,0,0,0,2,0,0,0,0 | 0,0,0,0,0,0,0,3,1,0,0,3,0,0,3,5,0,0,0,4,2,0,4,0,0,1,0,0,0,0,0,1,0,2,0,0,0,0,1,3,1,0,0,0,0,4,4,0,3,0 | 4,0,0,0,0,4,0,0,0,1,2,0,0,0,5,4,0,0,0,0,0,0,0,0,0,1,0,0,5,0,0,0,0,3,0,0,0,0,0,1,1,0,0,0,0,3,0,0,1,0 | 0,0,3,0,0,0,0,3,0,1,3,0,0,0,2,0,0,1,0,2,2,0,2,0,0,0,0,0,0,0,0,0,0,4,0,0,0,0,0,1,5,0,0,1,0,0,0,0,0,3 | 0,0,1,4,2,0,4,0,0,0,1,5,0,0,3,0,1,0,0,1,0,0,4,0,0,0,5,5,3,0,0,0,3,0,0,5,0,0,0,0,0,0,5,0,5,0,3,0,0,4 | 0,0,0,3,0,0,0,0,0,0,3,5,0,2,4,3,0,0,0,0,0,2,4,5,0,0,0,0,0,0,0,0,0,5,0,0,1,0,0,0,0,0,0,0,0,0,0,0,0,0 | 0,0,0,0,0,0,0,0,3,0,0,5,5,3,0,1,0,0,0,3,0,0,0,0,0,0,1,0,2,0,0,0,0,1,0,5,3,0,0,0,0,5,0,0,4,0,0,0,0,0 | 4,0,0,0,0,3,2,0,0,0,5,1,0,0,2,0,3,0,3,1,1,0,1,0,1,0,0,0,1,0,0,0,0,0,0,5,0,1,0,0,0,0,0,0,0,1,0,0,4,0 | 1,0,0,0,0,0,0,0,5,0,0,0,2,1,5,1,0,0,0,3,1,0,0,0,0,4,1,0,0,0,0,4,0,0,0,0,5,0,0,0,5,0,0,0,2,0,4,0,2,0 | 0,0,2,0,0,0,0,0,0,0,0,0,0,0,0,0,0,0,0,0,0,0,0,0,5,3,0,0,0,0,0,0,5,0,0,0,0,0,3,0,0,0,1,0,0,0,0,5,1,0 | 0,0,0,0,0,0,0,0,1,0,0,0,3,0,0,0,0,0,0,2,0,1,0,0,0,0,4,0,0,0,0,0,0,0,0,0,1,0,0,0,1,1,0,0,0,0,0,4,0,0 | 3,0,0,0,0,0,0,0,0,0,0,0,1,0,4,0,0,0,1,0,0,0,0,4,0,0,3,0,2,0,0,3,0,2,0,0,0,0,0,0,0,3,0,2,0,0,0,4,0,0 | 5,0,0,0,2,1,0,0,0,5,5,4,1,0,0,3,0,2,4,0,0,5,0,0,0,0,0,0,0,0,3,0,0,4,3,4,0,0,5,0,0,0,0,0,1,0,0,1,1,0 | 0,0,0,4,0,1,0,0,4,3,0,0,0,4,0,0,0,0,0,0,0,2,0,0,0,0,0,0,0,2,0,0,1,3,5,0,0,0,3,4,1,0,0,5,0,0,0,3,0,2 | 0,0,0,0,0,0,0,0,4,0,0,0,0,0,2,0,0,0,0,0,0,0,0,0,0,0,4,0,3,0,0,0,0,0,0,1,2,5,4,0,2,0,0,4,5,0,0,0,4,0 | 0,0,0,0,0,0,0,0,0,0,0,2,0,5,0,0,0,0,5,5,0,0,5,0,0,0,0,0,0,0,0,4,4,4,0,0,4,0,0,2,0,2,0,1,1,0,0,0,0,2 | 4,3,1,0,0,0,0,1,0,0,0,0,0,2,0,0,0,0,0,0,0,0,0,0,5,0,0,3,0,4,2,1,5,0,5,0,0,0,0,4,0,2,1,0,0,0,2,0,0,0 | 0,0,0,0,5,0,0,0,0,0,0,0,0,2,0,3,0,0,3,2,0,0,0,0,0,3,0,0,0,0,5,1,0,0,0,0,0,0,0,3,3,0,0,0,0,0,0,1,0,3 | 0,0,0,0,2,0,0,4,5,0,0,2,4,0,3,0,0,0,0,0,2,5,0,2,0,0,0,0,0,0,0,0,0,0,0,0,0,0,0,0,0,0,0,0,0,4,0,0,0,0 | 0,1,0,0,0,0,1,3,0,0,3,1,2,0,2,0,3,0,5,0,5,0,0,1,0,0,0,0,4,0,0,0,0,0,0,0,0,0,2,2,0,0,0,0,5,0,0,0,1,0 | 0,2,0,0,0,0,0,4,0,2,0,0,0,4,0,4,0,0,1,0,0,0,0,0,0,0,0,0,0,0,0,0,0,0,0,0,1,0,0,0,0,0,0,0,0,0,0,1,5,0 | 0,0,4,2,0,4,0,3,1,0,3,5,0,0,2,0,0,0,4,0,0,0,0,0,0,0,0,0,2,0,0,0,0,3,0,0,0,0,5,1,2,0,0,1,0,4,2,0,0,0 | 0,3,0,0,0,0,0,0,1,3,3,0,0,0,1,0,0,0,0,0,0,0,5,5,0,0,0,0,0,0,0,0,0,0,0,0,0,0,0,0,0,0,0,3,0,0,0,0,0,0 | 0,0,0,0,0,5,0,0,0,1,0,0,1,0,0,0,0,0,0,0,0,0,3,2,0,0,0,0,0,0,0,0,0,0,3,4,1,1,0,0,0,0,0,0,0,4,3,1,0,0 | 2,0,3,0,5,2,5,0,0,0,0,0,0,0,0,0,0,3,0,0,0,4,1,2,3,5,0,0,5,0,1,1,5,0,0,0,0,0,0,0,0,0,1,0,1,5,0,1,0,4 | 2,1,0,5,2,0,0,0,0,0,0,0,0,0,0,0,3,0,5,0,0,0,0,0,0,3,0,0,0,0,0,0,4,3,5,1,0,1,4,0,0,3,0,0,0,5,0,0,0,0 | 5,0,0,0,0,0,5,0,0,1,3,3,1,0,0,0,0,0,0,0,2,4,1,1,3,2,0,0,0,0,0,0,3,3,3,2,0,0,0,0,1,0,0,0,0,0,0,0,0,0 | 2,0,4,0,4,0,5,0,0,0,0,2,0,0,0,0,3,0,0,0,2,0,0,0,3,0,0,0,0,0,0,2,0,0,0,0,1,0,0,3,3,5,0,0,0,0,0,0,0,0 | 0,0,3,0,0,1,4,0,0,0,4,4,0,0,1,5,0,0,0,4,0,0,0,0,0,0,0,0,0,4,0,0,2,2,3,0,0,0,0,0,0,0,0,5,4,0,1,2,1,2 | 1,0,3,0,3,2,1,0,0,3,5,0,0,0,3,3,0,0,0,0,0,0,0,1,0,0,0,2,4,0,0,0,0,5,0,0,0,0,5,1,0,0,0,0,0,0,0,0,0,3 | 0,0,3,1,0,3,0,0,0,2,0,0,4,0,5,5,0,0,3,4,0,0,0,3,0,5,2,0,3,0,0,0,4,3,0,0,1,0,4,0,0,0,0,2,0,0,0,1,2,0 | 0,3,0,3,2,3,0,0,0,0,0,0,0,0,0,0,2,0,0,0,0,0,0,0,0,4,5,1,0,0,0,0,0,0,3,1,3,0,0,0,0,0,1,0,2,0,0,1,0,1 | 0,3,0,0,0,3,4,5,0,0,5,0,4,0,3,0,2,1,0,0,0,0,0,0,0,0,0,0,5,5,0,0,4,0,0,0,2,0,0,0,3,0,3,4,3,0,4,1,0,0 | 0,4,1,1,1,2,2,0,2,3,0,0,0,2,2,0,0,4,1,0,0,0,2,4,0,0,0,0,3,0,0,2,0,0,0,0,1,0,0,0,5,0,4,0,0,0,2,0,0,5 | 0,0,0,3,1,0,0,4,0,2,0,2,0,0,5,0,2,3,4,0,0,0,1,0,3,0,0,0,0,0,0,2,0,5,0,2,0,5,0,0,0,0,0,4,2,0,0,0,0,0 | 0,0,0,0,5,0,0,0,5,0,3,0,0,0,0,5,2,0,0,0,0,0,0,0,0,0,4,0,2,0,0,5,0,0,0,0,0,0,3,0,0,0,0,0,0,0,0,0,0,4 | 1,3,0,4,0,0,4,1,4,0,2,3,0,0,0,0,0,4,0,0,2,0,0,3,0,5,0,0,0,0,0,5,0,0,0,0,2,0,0,0,0,0,0,0,5,1,3,4,0,0 | 3,0,0,2,0,0,0,0,0,0,3,0,5,0,0,3,0,4,0,0,0,0,0,0,0,0,0,0,0,0,0,0,4,0,4,0,0,0,1,0,5,0,2,0,0,0,0,0,0,3 | 0,5,0,0,0,0,2,0,3,0,0,0,2,0,0,0,0,4,0,0,0,0,4,0,0,0,2,0,0,5,0,0,2,0,0,1,0,0,2,0,0,0,0,2,2,2,0,0,0,0 | 0,1,4,0,0,3,0,5,0,0,2,0,0,2,0,0,0,0,0,0,0,0,0,0,0,0,1,2,0,0,0,0,0,0,0,0,0,0,0,3,0,0,5,1,0,0,1,0,0,0 | 0,0,0,0,1,0,0,0,0,0,0,0,0,0,3,0,3,0,0,0,0,4,0,0,2,0,0,0,0,0,0,0,5,0,4,0,0,0,0,0,0,0,0,0,0,4,0,0,0,5 | 0,3,0,4,0,0,0,0,0,4,0,0,0,0,1,2,4,1,0,0,0,4,5,0,0,0,3,2,0,1,3,0,3,0,0,0,0,1,0,0,0,0,0,0,0,3,3,0,2,0 | 0,3,0,0,0,0,0,4,0,0,0,0,0,0,5,0,0,1,4,0,0,0,0,0,0,1,0,4,0,0,0,0,0,0,0,5,0,0,0,0,0,0,0,0,0,0,2,0,0,0 | 0,5,0,4,0,0,0,0,0,0,4,0,5,0,2,0,0,0,0,0,0,3,0,0,2,1,0,2,4,0,0,2,0,0,0,0,3,0,3,5,0,0,4,0,0,0,0,0,0,5 | 0,0,0,0,0,4,0,0,3,0,0,0,0,0,0,0,0,0,4,1,2,0,0,3,0,0,0,0,0,0,0,0,0,4,0,5,0,0,0,0,4,0,0,5,0,0,0,0,3,0 | 3,0,0,0,0,0,0,0,0,4,0,0,0,0,0,1,0,0,5,2,0,0,0,0,0,0,0,1,1,0,0,5,2,1,5,0,0,5,0,0,0,0,0,0,0,0,0,2,0,0 | 5,0,0,4,5,0,0,0,4,0,0,5,1,1,0,4,0,5,0,0,2,5,0,0,0,0,0,0,4,0,1,0,0,0,3,0,0,3,0,4,4,0,0,5,0,4,0,0,4,0 | 0,0,0,5,0,0,2,1,0,0,3,0,0,4,1,0,5,0,0,0,0,0,0,0,0,1,2,0,0,4,0,0,0,0,0,0,0,0,4,0,0,0,3,3,0,2,4,0,5,4 | 0,4,0,0,0,2,0,3,2,0,0,0,0,0,0,0,0,0,4,0,0,0,0,0,0,0,0,0,0,0,0,5,0,0,0,0,4,0,0,0,0,3,0,0,0,5,0,0,0,0 | 0,0,0,0,0,1,3,3,0,4,3,2,0,0,0,0,0,0,0,0,4,0,0,0,2,0,0,5,0,0,0,0,0,0,0,0,0,1,1,0,1,0,0,0,0,0,4,0,1,5 | 0,0,0,0,0,0,2,0,0,3,0,3,4,0,0,0,0,0,3,0,0,0,0,0,5,0,0,0,0,0,3,0,3,0,0,0,0,0,0,0,0,5,0,0,1,0,1,0,0,4 | 0,0,0,0,0,0,0,0,0,0,0,0,0,0,2,0,1,0,0,3,0,0,2,0,5,4,5,0,0,4,0,0,3,0,0,0,0,0,0,0,0,0,0,0,0,0,0,0,0,0 | 0,0,0,0,0,5,3,0,2,0,1,0,0,0,0,1,2,0,0,0,4,3,0,0,0,0,0,4,5,0,4,1,0,0,1,2,0,0,0,0,2,2,2,4,0,0,2,0,5,3 | 0,0,0,0,0,0,3,0,0,0,0,0,0,0,0,1,1,2,0,0,0,2,0,5,0,0,3,0,0,0,0,0,0,0,0,0,4,0,0,0,0,0,5,0,2,0,0,0,0,4 |];
